50
100
100
96
95
95
95
93
92
87
87
83
83
82
79
78
77
76
76
76
72
71
69
69
68
64
63
60
57
55
54
54
51
50
46
42
41
40
40
38
38
37
31
30
30
29
28
27
26
26
22
20
